
Gurobi 9.5.1 (linux64) logging started Fri Apr  1 18:23:50 2022

Set parameter LogFile to value "../results/logs/log_2022_04_01_18_22.csv_3_250.log"
Gurobi Optimizer version 9.5.1 build v9.5.1rc2 (linux64)
Thread count: 8 physical cores, 8 logical processors, using up to 8 threads
Optimize a model with 4280397 rows, 4280396 columns and 76620576 nonzeros
Model fingerprint: 0x06f58c57
Variable types: 0 continuous, 4280396 integer (4280396 binary)
Coefficient statistics:
  Matrix range     [1e+00, 3e+00]
  Objective range  [1e+00, 1e+00]
  Bounds range     [1e+00, 1e+00]
  RHS range        [1e+00, 2e+02]
Found heuristic solution: objective -0.0000000
Presolve removed 0 rows and 0 columns (presolve time = 5s) ...
Presolve removed 0 rows and 0 columns (presolve time = 11s) ...
Presolve removed 0 rows and 0 columns (presolve time = 16s) ...
Presolve removed 0 rows and 0 columns (presolve time = 21s) ...
Presolve removed 0 rows and 523391 columns (presolve time = 27s) ...
Presolve removed 1046782 rows and 523391 columns (presolve time = 30s) ...
Presolve removed 1046782 rows and 550984 columns (presolve time = 35s) ...
Presolve removed 1049537 rows and 550984 columns (presolve time = 40s) ...
Presolve removed 1049537 rows and 553416 columns (presolve time = 46s) ...
Presolve removed 1049537 rows and 553416 columns (presolve time = 54s) ...
Presolve removed 1049537 rows and 830942 columns (presolve time = 65s) ...
Presolve removed 1049537 rows and 830942 columns (presolve time = 71s) ...
Presolve removed 1049537 rows and 830942 columns (presolve time = 79s) ...
Presolve removed 1049537 rows and 830942 columns (presolve time = 86s) ...
Presolve removed 1049537 rows and 830942 columns (presolve time = 90s) ...
Presolve removed 1049537 rows and 830942 columns (presolve time = 95s) ...
Presolve removed 1049537 rows and 830942 columns (presolve time = 100s) ...
Presolve removed 1049537 rows and 830942 columns (presolve time = 105s) ...
Presolve removed 1049537 rows and 830942 columns (presolve time = 110s) ...
Presolve removed 1049537 rows and 830942 columns (presolve time = 115s) ...
Presolve removed 1049537 rows and 830942 columns (presolve time = 120s) ...
Presolve removed 1049537 rows and 830942 columns (presolve time = 125s) ...
Presolve removed 1049537 rows and 830942 columns (presolve time = 130s) ...
Presolve removed 1049537 rows and 830942 columns (presolve time = 135s) ...
Presolve removed 1049537 rows and 830942 columns (presolve time = 140s) ...
Presolve removed 1049537 rows and 830942 columns (presolve time = 145s) ...
Presolve removed 1049537 rows and 830942 columns (presolve time = 150s) ...
Presolve removed 1049537 rows and 830942 columns (presolve time = 155s) ...
Presolve removed 1049537 rows and 830942 columns (presolve time = 168s) ...
Presolve removed 1049537 rows and 830942 columns (presolve time = 175s) ...
Presolve removed 1049537 rows and 830942 columns (presolve time = 182s) ...
Presolve removed 1049537 rows and 830942 columns (presolve time = 189s) ...
Presolve removed 1049537 rows and 830942 columns (presolve time = 190s) ...
Presolve removed 1049537 rows and 830942 columns (presolve time = 195s) ...
Presolve removed 1049537 rows and 1136386 columns (presolve time = 200s) ...
Presolve removed 1049537 rows and 1136386 columns (presolve time = 208s) ...
Presolve removed 1049537 rows and 1136386 columns (presolve time = 210s) ...
Presolve removed 1049537 rows and 1136386 columns (presolve time = 215s) ...
Presolve removed 1049537 rows and 1136386 columns (presolve time = 221s) ...
Presolve removed 1049537 rows and 1136386 columns (presolve time = 225s) ...
Presolve removed 1049537 rows and 1136386 columns (presolve time = 230s) ...
Presolve removed 1049537 rows and 1136386 columns (presolve time = 235s) ...
Presolve removed 1049537 rows and 1136386 columns (presolve time = 240s) ...
Presolve removed 1049537 rows and 1136386 columns (presolve time = 245s) ...
Presolve removed 1049537 rows and 1136386 columns (presolve time = 250s) ...
Presolve removed 1049537 rows and 1136386 columns (presolve time = 255s) ...
Presolve removed 1049537 rows and 1136386 columns (presolve time = 260s) ...
Presolve removed 1049537 rows and 1136386 columns (presolve time = 265s) ...
Presolve removed 1049537 rows and 1136386 columns (presolve time = 270s) ...
Presolve removed 1049537 rows and 1136386 columns (presolve time = 275s) ...
Presolve removed 1049537 rows and 1136386 columns (presolve time = 280s) ...
Presolve removed 1049537 rows and 1136386 columns (presolve time = 285s) ...
Presolve removed 1049538 rows and 1136386 columns (presolve time = 291s) ...
Presolve removed 1660425 rows and 1136386 columns (presolve time = 298s) ...
Presolve removed 1660425 rows and 1136386 columns (presolve time = 302s) ...
Presolve removed 1660425 rows and 1136386 columns (presolve time = 306s) ...
Presolve removed 1660425 rows and 1136386 columns (presolve time = 312s) ...
Presolve removed 1660425 rows and 1225663 columns (presolve time = 322s) ...
Presolve removed 1660425 rows and 1225663 columns (presolve time = 327s) ...
Presolve removed 1660425 rows and 1225663 columns (presolve time = 339s) ...
Presolve removed 1660425 rows and 1225663 columns (presolve time = 343s) ...
Presolve removed 1660425 rows and 1225663 columns (presolve time = 350s) ...
Presolve removed 1660425 rows and 1225663 columns (presolve time = 357s) ...
Presolve removed 1660425 rows and 1225663 columns (presolve time = 360s) ...
Presolve removed 1660425 rows and 1225663 columns (presolve time = 365s) ...
Presolve removed 1660425 rows and 1225663 columns (presolve time = 374s) ...
Presolve removed 1660425 rows and 1225663 columns (presolve time = 375s) ...
Presolve removed 1660425 rows and 1225663 columns (presolve time = 380s) ...
Presolve removed 1660425 rows and 1225670 columns (presolve time = 389s) ...
Presolve removed 1660425 rows and 1225670 columns (presolve time = 390s) ...
Presolve removed 1660425 rows and 1226222 columns (presolve time = 395s) ...
Presolve removed 1660983 rows and 1226222 columns (presolve time = 400s) ...
Presolve removed 1660983 rows and 1226222 columns (presolve time = 405s) ...
Presolve removed 1660983 rows and 1226222 columns (presolve time = 411s) ...
Presolve removed 1660983 rows and 1226222 columns (presolve time = 421s) ...
Presolve removed 1660983 rows and 1226222 columns (presolve time = 426s) ...
Presolve removed 1660984 rows and 1226223 columns (presolve time = 437s) ...
Presolve removed 1660984 rows and 1226223 columns (presolve time = 442s) ...
Presolve removed 1660984 rows and 1226223 columns (presolve time = 449s) ...
Presolve removed 1660984 rows and 1226223 columns (presolve time = 456s) ...
Presolve removed 1660984 rows and 1226223 columns (presolve time = 460s) ...
Presolve removed 1660984 rows and 1226223 columns (presolve time = 465s) ...
Presolve removed 1660984 rows and 1226223 columns (presolve time = 473s) ...
Presolve removed 1660984 rows and 1226223 columns (presolve time = 475s) ...
Presolve removed 1660984 rows and 1226223 columns (presolve time = 480s) ...
Presolve removed 1660984 rows and 1226223 columns (presolve time = 487s) ...
Presolve removed 1660984 rows and 1226223 columns (presolve time = 490s) ...
Presolve removed 1660984 rows and 1226223 columns (presolve time = 496s) ...
Presolve removed 1660984 rows and 1226223 columns (presolve time = 500s) ...
Presolve removed 1660984 rows and 1226223 columns (presolve time = 505s) ...
Presolve removed 1660984 rows and 1226223 columns (presolve time = 510s) ...
Presolve removed 1660984 rows and 1226223 columns (presolve time = 515s) ...
Presolve removed 1660984 rows and 1226223 columns (presolve time = 520s) ...
Presolve removed 1660984 rows and 1226223 columns (presolve time = 527s) ...
Presolve removed 1660984 rows and 1226223 columns (presolve time = 530s) ...
Presolve removed 1660984 rows and 1226223 columns (presolve time = 536s) ...
Presolve removed 1660984 rows and 1226223 columns (presolve time = 545s) ...
Presolve removed 1660984 rows and 1226223 columns (presolve time = 559s) ...
Presolve removed 1661030 rows and 1226269 columns (presolve time = 560s) ...
Presolve removed 1661030 rows and 1226269 columns (presolve time = 570s) ...
Presolve removed 1660973 rows and 1226212 columns
Presolve time: 570.08s
Presolved: 2619424 rows, 3054184 columns, 69962196 nonzeros
Variable types: 0 continuous, 3054184 integer (2967194 binary)

Deterministic concurrent LP optimizer: primal simplex, dual simplex, and barrier
Showing barrier log only...

